2
150 3
81
20 1 13
21 1 4
22 1 8
23 1 19
24 1 8
25 1 10
26 1 18
27 1 22
28 1 13
29 1 16
30 1 21
31 1 11
32 1 12
33 1 11
34 1 9
35 1 12
36 1 10
37 1 10
38 1 18
39 1 9
40 1 15
41 1 12
42 1 16
43 1 10
44 1 5
45 1 9
46 1 14
47 1 16
48 1 14
49 1 17
50 1 10
51 1 13
52 1 13
53 1 11
54 1 10
55 1 13
56 1 13
57 1 13
58 1 13
59 1 10
60 1 16
61 1 8
62 1 10
63 1 15
64 1 14
65 1 10
66 1 9
67 1 12
68 1 10
69 1 10
70 1 9
71 1 13
72 1 12
73 1 9
74 1 11
75 1 18
76 1 11
77 1 14
78 1 18
79 1 17
80 1 10
81 1 16
82 1 6
83 1 9
84 1 14
85 1 15
86 1 8
87 1 11
88 1 16
89 1 12
90 1 11
91 1 10
92 1 13
93 1 16
94 1 15
95 1 18
96 1 11
97 1 12
98 1 12
99 1 12
100 1 6
